Route #1: 1 18 73 59 39 70 68 44 22 53 1
Route #2: 1 2 25 57 3 28 48 64 50 1
Route #3: 1 14 49 40 75 29 20 10 62 56 37 42 15 1
Route #4: 1 52 16 13 35 72 23 9 8 33 32 1
Route #5: 1 78 24 45 27 12 65 41 54 11 17 67 1
Route #6: 1 6 31 38 76 30 71 66 1
Route #7: 1 46 47 55 21 4 74 61 1
Route #8: 1 51 5 60 36 34 1
Route #9: 1 58 77 63 7 69 1
Route #10: 1 26 19 43 1
cost: 1445
